(set-logic ALL)
(declare-const k Int)
(declare-fun s () (_ BitVec k))
(declare-fun t () (_ BitVec k))
(assert (distinct (bvurem s (bvlshr (_ bv1 k) (bvurem t (_ bvk k)))) (bvurem s (bvlshr (_ bv1 k) t))))
(check-sat)
